NAME : single
TYPE : ATSP
DIMENSION : 9
EDGE_WEIGHT_TYPE : EXPLICIT
EDGE_WEIGHT_FORMAT : FULL_MATRIX
EDGE_WEIGHT_SECTION
0 609 635 808 731 659 684 556 582 
0 0 72 462 447 457 502 93 569 
0 72 0 421 404 432 480 161 561 
0 462 421 0 119 345 402 507 510 
0 447 404 119 0 284 341 491 456 
0 457 432 345 284 0 56 460 255 
0 502 480 402 341 56 0 500 237 
0 93 161 507 491 460 500 0 515 
0 569 561 510 456 255 237 515 0 
EOF